
Gurobi 11.0.1 (win64) logging started Mon May 13 14:58:36 2024

Set parameter LogFile to value "output/solver_log15.txt"
Gurobi Optimizer version 11.0.1 build v11.0.1rc0 (win64 - Windows 11.0 (22631.2))

CPU model: 11th Gen Intel(R) Core(TM) i7-1165G7 @ 2.80GHz, instruction set [SSE2|AVX|AVX2|AVX512]
Thread count: 4 physical cores, 8 logical processors, using up to 8 threads

Optimize a model with 1371 rows, 514 columns and 25085 nonzeros
Model fingerprint: 0x01b7bcc3
Variable types: 88 continuous, 426 integer (426 binary)
Coefficient statistics:
  Matrix range     [4e-01, 1e+05]
  Objective range  [1e+00, 1e+02]
  Bounds range     [1e+00, 1e+00]
  RHS range        [1e-02, 1e+05]

User MIP start produced solution with objective 57893.3 (0.01s)
User MIP start produced solution with objective 57893.3 (0.01s)
Loaded user MIP start with objective 57893.3

Presolve removed 226 rows and 230 columns
Presolve time: 0.03s
Presolved: 1145 rows, 284 columns, 23152 nonzeros
Variable types: 83 continuous, 201 integer (200 binary)

Root relaxation: cutoff, 26 iterations, 0.00 seconds (0.00 work units)

    Nodes    |    Current Node    |     Objective Bounds      |     Work
 Expl Unexpl |  Obj  Depth IntInf | Incumbent    BestBd   Gap | It/Node Time

     0     0     cutoff    0      57893.3083 57893.3083  0.00%     -    0s

Explored 1 nodes (26 simplex iterations) in 0.07 seconds (0.08 work units)
Thread count was 8 (of 8 available processors)

Solution count 2: 57893.3 57893.3 

Optimal solution found (tolerance 1.00e-04)
Best objective 5.789330834140e+04, best bound 5.789330834140e+04, gap 0.0000%
